NAME 
ROWS
 N  OBJ
 L  R0      
 E  R1      
 E  R2      
 E  R3      
 E  R4      
 E  R5      
 E  R6      
 E  R7      
 E  R8      
 E  R9      
 E  R10     
COLUMNS
    MARKER    'MARKER'                 'INTORG'
    I0(4)     OBJ       -11
    I0(4)     R0        193
    I0(4)     R1        3
    I0(4)     R6        19
    I0(4)     R10       1
    I1(6)     OBJ       -146
    I1(6)     R0        -75
    I1(6)     R1        6
    I1(6)     R2        6
    I1(6)     R4        16
    I1(6)     R5        3
    I1(6)     R10       1
    I2(4)     OBJ       53
    I2(4)     R0        63
    I2(4)     R2        15
    I2(4)     R5        3
    I2(4)     R10       1
    I3(4)     OBJ       -132
    I3(4)     R0        121
    I3(4)     R2        2
    I3(4)     R4        7
    I3(4)     R10       1
    I4(5)     OBJ       170
    I4(5)     R0        -186
    I4(5)     R1        7
    I4(5)     R2        5
    I4(5)     R6        7
    I4(5)     R10       1
    I5(4)     OBJ       -182
    I5(4)     R0        -179
    I5(4)     R1        11
    I5(4)     R2        14
    I5(4)     R10       1
    MARKER    'MARKER'                 'INTEND'
    C6(7)     OBJ       -5
    C6(7)     R0        -4
    C6(7)     R1        18
    C6(7)     R2        5
    C6(7)     R4        2
    C6(7)     R6        14
    C6(7)     R7        8
    C6(7)     R8        8
    C7(7)     OBJ       -7
    C7(7)     R0        -7
    C7(7)     R1        -1
    C7(7)     R2        2
    C7(7)     R3        17
    C7(7)     R4        10
    C7(7)     R7        17
    C7(7)     R8        3
    C8(4)     OBJ       6
    C8(4)     R0        -5
    C8(4)     R3        15
    C8(4)     R5        -1
    C8(4)     R7        13
    C9(5)     OBJ       7
    C9(5)     R0        7
    C9(5)     R1        14
    C9(5)     R3        14
    C9(5)     R4        7
    C9(5)     R9        14
    C10(1)    R1        1
    C11(1)    R2        1
    C12(1)    R3        1
    C13(1)    R4        1
    C14(1)    R5        1
    C15(1)    R6        1
    C16(1)    R7        1
    C17(1)    R8        1
    C18(1)    R9        1
    C19(1)    R10       1
RHS
    RHS1      R0        -2.8409554140127386e+02
    RHS1      R1        57
    RHS1      R2        86
    RHS1      R3        61
    RHS1      R4        58
    RHS1      R5        54
    RHS1      R6        59
    RHS1      R7        69
    RHS1      R8        66
    RHS1      R9        75
    RHS1      R10       2
BOUNDS
 UP BND1      I0(4)     1
 UP BND1      I1(6)     1
 UP BND1      I2(4)     1
 UP BND1      I3(4)     1
 UP BND1      I4(5)     1
 UP BND1      I5(4)     1
ENDATA
